(set-logic HORN)
(declare-datatypes ((Nat_0 0)) (((Z_0 ) (S_0 (unS_0 Nat_0)))))
(declare-fun diseqNat_0 (Nat_0 Nat_0) Bool)
(declare-fun unS_1 (Nat_0 Nat_0) Bool)
(declare-fun isZ_0 (Nat_0) Bool)
(declare-fun isS_0 (Nat_0) Bool)
(assert (forall ((x_32 Nat_0) (x_31 Nat_0))
	(=> (= x_32 (S_0 x_31))
	    (unS_1 x_31 x_32))))
(assert (isZ_0 Z_0))
(assert (forall ((x_33 Nat_0))
	(isS_0 (S_0 x_33))))
(assert (forall ((x_34 Nat_0))
	(diseqNat_0 Z_0 (S_0 x_34))))
(assert (forall ((x_35 Nat_0))
	(diseqNat_0 (S_0 x_35) Z_0)))
(assert (forall ((x_36 Nat_0) (x_37 Nat_0))
	(=> (diseqNat_0 x_36 x_37)
	    (diseqNat_0 (S_0 x_36) (S_0 x_37)))))
(declare-fun add_0 (Nat_0 Nat_0 Nat_0) Bool)
(declare-fun minus_0 (Nat_0 Nat_0 Nat_0) Bool)
(declare-fun le_0 (Nat_0 Nat_0) Bool)
(declare-fun ge_0 (Nat_0 Nat_0) Bool)
(declare-fun lt_0 (Nat_0 Nat_0) Bool)
(declare-fun gt_0 (Nat_0 Nat_0) Bool)
(declare-fun mult_0 (Nat_0 Nat_0 Nat_0) Bool)
(declare-fun div_0 (Nat_0 Nat_0 Nat_0) Bool)
(declare-fun mod_0 (Nat_0 Nat_0 Nat_0) Bool)
(assert (forall ((y_3 Nat_0))
	(add_0 y_3 Z_0 y_3)))
(assert (forall ((x_29 Nat_0) (y_3 Nat_0) (r_0 Nat_0))
	(=> (add_0 r_0 x_29 y_3)
	    (add_0 (S_0 r_0) (S_0 x_29) y_3))))
(assert (forall ((y_3 Nat_0))
	(minus_0 Z_0 Z_0 y_3)))
(assert (forall ((x_29 Nat_0) (y_3 Nat_0) (r_0 Nat_0))
	(=> (minus_0 r_0 x_29 y_3)
	    (minus_0 (S_0 r_0) (S_0 x_29) y_3))))
(assert (forall ((y_3 Nat_0))
	(le_0 Z_0 y_3)))
(assert (forall ((x_29 Nat_0) (y_3 Nat_0))
	(=> (le_0 x_29 y_3)
	    (le_0 (S_0 x_29) (S_0 y_3)))))
(assert (forall ((y_3 Nat_0))
	(ge_0 y_3 Z_0)))
(assert (forall ((x_29 Nat_0) (y_3 Nat_0))
	(=> (ge_0 x_29 y_3)
	    (ge_0 (S_0 x_29) (S_0 y_3)))))
(assert (forall ((y_3 Nat_0))
	(lt_0 Z_0 (S_0 y_3))))
(assert (forall ((x_29 Nat_0) (y_3 Nat_0))
	(=> (lt_0 x_29 y_3)
	    (lt_0 (S_0 x_29) (S_0 y_3)))))
(assert (forall ((y_3 Nat_0))
	(gt_0 (S_0 y_3) Z_0)))
(assert (forall ((x_29 Nat_0) (y_3 Nat_0))
	(=> (gt_0 x_29 y_3)
	    (gt_0 (S_0 x_29) (S_0 y_3)))))
(assert (forall ((y_3 Nat_0))
	(mult_0 Z_0 Z_0 y_3)))
(assert (forall ((x_29 Nat_0) (y_3 Nat_0) (r_0 Nat_0) (z_3 Nat_0))
	(=>	(and (mult_0 r_0 x_29 y_3)
			(add_0 z_3 r_0 y_3))
		(mult_0 z_3 (S_0 x_29) y_3))))
(assert (forall ((x_29 Nat_0) (y_3 Nat_0))
	(=> (lt_0 x_29 y_3)
	    (div_0 Z_0 x_29 y_3))))
(assert (forall ((x_29 Nat_0) (y_3 Nat_0) (r_0 Nat_0) (z_3 Nat_0))
	(=>	(and (ge_0 x_29 y_3)
			(minus_0 z_3 x_29 y_3)
			(div_0 r_0 z_3 y_3))
		(div_0 (S_0 r_0) x_29 y_3))))
(assert (forall ((x_29 Nat_0) (y_3 Nat_0))
	(=> (lt_0 x_29 y_3)
	    (mod_0 x_29 x_29 y_3))))
(assert (forall ((x_29 Nat_0) (y_3 Nat_0) (r_0 Nat_0) (z_3 Nat_0))
	(=>	(and (ge_0 x_29 y_3)
			(minus_0 z_3 x_29 y_3)
			(mod_0 r_0 z_3 y_3))
		(mod_0 r_0 x_29 y_3))))
(declare-datatypes ((It_0 0)) (((A_0 ) (B_0 ) (C_0 ))))
(declare-fun diseqIt_0 (It_0 It_0) Bool)
(declare-fun isA_0 (It_0) Bool)
(declare-fun isB_0 (It_0) Bool)
(declare-fun isC_0 (It_0) Bool)
(assert (isA_0 A_0))
(assert (isB_0 B_0))
(assert (isC_0 C_0))
(assert (diseqIt_0 A_0 B_0))
(assert (diseqIt_0 A_0 C_0))
(assert (diseqIt_0 B_0 A_0))
(assert (diseqIt_0 C_0 A_0))
(assert (diseqIt_0 B_0 C_0))
(assert (diseqIt_0 C_0 B_0))
(declare-datatypes ((list_0 0)) (((nil_0 ) (cons_0 (head_0 It_0) (tail_0 list_0)))))
(declare-fun diseqlist_0 (list_0 list_0) Bool)
(declare-fun head_1 (It_0 list_0) Bool)
(declare-fun tail_1 (list_0 list_0) Bool)
(declare-fun isnil_0 (list_0) Bool)
(declare-fun iscons_0 (list_0) Bool)
(assert (forall ((x_44 list_0) (x_42 It_0) (x_43 list_0))
	(=> (= x_44 (cons_0 x_42 x_43))
	    (head_1 x_42 x_44))))
(assert (forall ((x_44 list_0) (x_42 It_0) (x_43 list_0))
	(=> (= x_44 (cons_0 x_42 x_43))
	    (tail_1 x_43 x_44))))
(assert (isnil_0 nil_0))
(assert (forall ((x_45 It_0) (x_46 list_0))
	(iscons_0 (cons_0 x_45 x_46))))
(assert (forall ((x_47 It_0) (x_48 list_0))
	(diseqlist_0 nil_0 (cons_0 x_47 x_48))))
(assert (forall ((x_49 It_0) (x_50 list_0))
	(diseqlist_0 (cons_0 x_49 x_50) nil_0)))
(assert (forall ((x_51 It_0) (x_52 list_0) (x_53 It_0) (x_54 list_0))
	(=> (diseqIt_0 x_51 x_53)
	    (diseqlist_0 (cons_0 x_51 x_52) (cons_0 x_53 x_54)))))
(assert (forall ((x_51 It_0) (x_52 list_0) (x_53 It_0) (x_54 list_0))
	(=> (diseqlist_0 x_52 x_54)
	    (diseqlist_0 (cons_0 x_51 x_52) (cons_0 x_53 x_54)))))
(declare-fun isPrefix_0 (Bool list_0 list_0) Bool)
(assert (forall ((x_0 list_0) (y_0 list_0) (z_0 It_0) (x_1 list_0) (x_2 It_0) (x_3 list_0) (x_13 Bool) (x_14 Bool))
	(=>	(and (= x_13 (and (= z_0 x_2) x_14))
			(isPrefix_0 x_14 x_1 x_3)
			(= x_0 (cons_0 z_0 x_1))
			(= y_0 (cons_0 x_2 x_3)))
		(isPrefix_0 x_13 x_0 y_0))))
(assert (forall ((x_0 list_0) (y_0 list_0) (z_0 It_0) (x_1 list_0) (x_15 Bool))
	(=>	(and (= x_15 false)
			(= x_0 (cons_0 z_0 x_1))
			(= y_0 nil_0))
		(isPrefix_0 x_15 x_0 y_0))))
(assert (forall ((x_0 list_0) (y_0 list_0) (x_16 Bool))
	(=>	(and (= x_16 true)
			(= x_0 nil_0))
		(isPrefix_0 x_16 x_0 y_0))))
(declare-fun isRelaxedPrefix_0 (Bool list_0 list_0) Bool)
(assert (forall ((x_4 list_0) (y_1 list_0) (z_1 It_0) (x_5 list_0) (x_6 It_0) (x_7 list_0) (x_8 It_0) (x_9 list_0) (x_17 Bool) (x_18 Bool))
	(=>	(and (= x_17 x_18)
			(isRelaxedPrefix_0 x_18 (cons_0 x_6 x_7) x_9)
			(= x_4 (cons_0 z_1 x_5))
			(= x_5 (cons_0 x_6 x_7))
			(= y_1 (cons_0 x_8 x_9))
			(= z_1 x_8))
		(isRelaxedPrefix_0 x_17 x_4 y_1))))
(assert (forall ((x_4 list_0) (y_1 list_0) (z_1 It_0) (x_5 list_0) (x_6 It_0) (x_7 list_0) (x_8 It_0) (x_9 list_0) (x_19 Bool) (x_20 Bool))
	(=>	(and (= x_19 x_20)
			(isPrefix_0 x_20 (cons_0 x_6 x_7) (cons_0 x_8 x_9))
			(= x_4 (cons_0 z_1 x_5))
			(= x_5 (cons_0 x_6 x_7))
			(= y_1 (cons_0 x_8 x_9))
			(diseqIt_0 z_1 x_8))
		(isRelaxedPrefix_0 x_19 x_4 y_1))))
(assert (forall ((x_4 list_0) (y_1 list_0) (z_1 It_0) (x_5 list_0) (x_6 It_0) (x_7 list_0) (x_21 Bool))
	(=>	(and (= x_21 false)
			(= x_4 (cons_0 z_1 x_5))
			(= x_5 (cons_0 x_6 x_7))
			(= y_1 nil_0))
		(isRelaxedPrefix_0 x_21 x_4 y_1))))
(assert (forall ((x_4 list_0) (y_1 list_0) (z_1 It_0) (x_5 list_0) (x_22 Bool))
	(=>	(and (= x_22 true)
			(= x_4 (cons_0 z_1 x_5))
			(= x_5 nil_0))
		(isRelaxedPrefix_0 x_22 x_4 y_1))))
(assert (forall ((x_4 list_0) (y_1 list_0) (x_23 Bool))
	(=>	(and (= x_23 true)
			(= x_4 nil_0))
		(isRelaxedPrefix_0 x_23 x_4 y_1))))
(declare-fun x_10 (list_0 list_0 list_0) Bool)
(assert (forall ((x_11 list_0) (y_2 list_0) (z_2 It_0) (xs_0 list_0) (x_24 list_0) (x_25 list_0))
	(=>	(and (= x_24 (cons_0 z_2 x_25))
			(x_10 x_25 xs_0 y_2)
			(= x_11 (cons_0 z_2 xs_0)))
		(x_10 x_24 x_11 y_2))))
(assert (forall ((x_11 list_0) (y_2 list_0) (x_26 list_0))
	(=>	(and (= x_26 y_2)
			(= x_11 nil_0))
		(x_10 x_26 x_11 y_2))))
(assert (forall ((x_12 It_0) (xs_1 list_0) (ys_0 list_0) (x_27 list_0) (x_28 Bool))
	(=>	(and (= x_28 false)
			(x_10 x_27 xs_1 ys_0)
			(isRelaxedPrefix_0 x_28 (cons_0 x_12 xs_1) x_27))
		false)))
(check-sat)
